\* Problem: Unknown *\

Maximize
 obj: + xp_0_0 + xp_0_1 + xp_0_2 + xp_0_3 + xp_0_4 + xp_0_5 + xp_0_6
 + xp_0_7 + xp_0_8 + xp_1_0 + xp_1_1 + xp_1_2 + xp_2_0 + xp_2_1 + xp_2_2
 + xp_2_3 + xp_2_4 + xp_3_0 + xp_3_1 + xp_3_2 + xp_3_3 + xp_4_0 + xp_4_1
 + xp_5_0 + xp_5_1 + xp_5_2 + xp_6_0 + xp_6_1 + xp_6_2 + xp_7_0 + xp_8_0
 + xp_8_1 + xp_9_0 + xp_10_0 + xp_10_1 + xp_11_0 + xp_11_1 + xp_11_2
 + xp_11_3 + xp_11_4 + xp_11_5 + xp_12_0 + xp_13_0 + xp_13_1 + xp_14_0
 + xp_14_1 + xp_15_0 + xp_15_1 + xp_16_0 + xp_16_1 + xp_17_0 + xp_17_1
 + xp_17_2 + xp_17_3 + xp_17_4 + xp_17_5 + xp_17_6 + xp_18_0 + xp_18_1
 + xp_18_2 + xp_18_3 + xp_18_4 + xp_18_5 + xp_19_0 + xp_19_1 + xp_19_2
 + xp_19_3 + xp_19_4 + xp_19_5 + xp_19_6 + xp_20_0 + xp_20_1 + xp_20_2
 + xp_20_3 + xp_21_0 + xp_21_1 + xp_21_2 + xp_21_3 + xp_21_4 + xp_21_5
 + xp_22_0 + xp_22_1 + xp_22_2 + xp_22_3 + xp_22_4 + xp_22_5 + xp_23_0
 + xp_23_1 + xp_23_2 + xp_23_3 + xp_23_4 + xp_23_5 + xp_23_6 + xp_23_7

Subject To
 r_1: 0 xp_0_0 <= 28.4612068965517
 r_2: + xp_23_7 + xp_23_4 + xp_22_3 + xp_18_4 + xp_18_1 + xp_15_1
 + xp_5_2 + xp_2_2 <= 27.7826086956522
 r_3: + xp_23_3 + xp_21_2 + xp_18_5 + xp_18_2 + xp_6_2
 <= 29.2225609756098
 r_4: + xp_17_3 + xp_15_0 <= 29.2225609756098
 r_5: + xp_18_0 + xp_0_6 <= 27.1297393364929
 r_6: + xp_19_5 + xp_18_3 <= 28.8106343283582
 r_7: + xp_20_3 <= 28.4612068965517
 r_8: + xp_23_6 + xp_22_2 + xp_11_3 + xp_5_1 + xp_3_3 + xp_3_2 + xp_2_1
 <= 27.7826086956522
 r_9: + xp_23_2 + xp_11_1 + xp_6_1 + xp_3_1 <= 28.8106343283582
 r_10: + xp_17_4 + xp_11_5 + xp_3_0 <= 28.8106343283582
 r_11: + xp_18_5 + xp_18_3 + xp_11_2 <= 27.1297393364929
 r_12: + xp_11_0 <= 28.8106343283582
 r_13: + xp_11_4 <= 28.8106343283582
 r_14: + xp_21_1 + xp_19_3 + xp_14_0 + xp_0_8 + xp_0_1
 <= 27.7826086956522
 r_15: + xp_21_0 + xp_19_4 <= 28.4612068965517
 r_16: + xp_22_1 + xp_21_3 + xp_19_6 + xp_0_7 + xp_0_5 + xp_0_3 + xp_0_2
 <= 28.4612068965517
 r_17: + xp_0_0 <= 27.1297393364929
 r_18: + xp_21_2 + xp_19_5 + xp_4_0 + xp_0_6 <= 28.4612068965517
 r_19: + xp_19_0 <= 28.4612068965517
 r_20: + xp_21_5 + xp_21_4 + xp_19_2 + xp_19_1 + xp_14_1 + xp_4_1
 + xp_0_4 <= 28.4612068965517
 r_21: + xp_20_1 <= 27.7826086956522
 r_22: + xp_21_5 + xp_21_1 <= 27.7826086956522
 r_23: + xp_23_7 + xp_22_4 + xp_22_3 + xp_22_2 + xp_15_1 + xp_3_3
 <= 27.7826086956522
 r_24: + xp_23_6 + xp_23_4 + xp_18_4 + xp_17_6 + xp_3_2 + xp_0_8
 <= 29.4574468085106
 r_25: 0 xp_0_0 <= 27.7826086956522
 r_26: + xp_18_1 + xp_0_4 + xp_0_1 <= 27.1297393364929
 r_27: + xp_11_4 + xp_11_3 + xp_4_1 <= 27.7826086956522
 r_28: + xp_19_3 + xp_19_2 + xp_10_1 <= 27.7826086956522
 r_29: + xp_20_2 <= 28.4612068965517
 r_30: + xp_2_0 <= 27.7826086956522
 r_31: + xp_23_3 + xp_23_2 + xp_18_2 + xp_6_2 + xp_6_1 + xp_3_1 + xp_2_4
 <= 29.4574468085106
 r_32: + xp_2_3 <= 30
 r_33: + xp_11_1 + xp_2_2 <= 29.2225609756098
 r_34: + xp_19_4 + xp_18_5 + xp_2_1 <= 28.8106343283582
 r_35: 0 xp_0_0 <= 28.4612068965517
 r_36: + xp_9_0 <= 27.7826086956522
 r_37: + xp_21_3 + xp_13_1 + xp_8_1 + xp_0_5 <= 29.4574468085106
 r_38: + xp_23_7 + xp_23_5 + xp_1_1 + xp_0_7 <= 30
 r_39: + xp_19_6 + xp_17_1 + xp_15_1 + xp_3_3 + xp_0_3 <= 30
 r_40: + xp_0_2 <= 27.1297393364929
 r_41: + xp_12_0 + xp_2_4 <= 29.4574468085106
 r_42: + xp_21_3 <= 29.4574468085106
 r_43: + xp_16_0 <= 29.4574468085106
 r_44: + xp_23_6 + xp_23_4 + xp_23_3 + xp_23_2 + xp_23_1 + xp_16_1
 + xp_1_2 <= 29.4574468085106
 r_45: + xp_17_6 + xp_17_2 + xp_3_2 + xp_3_1 <= 29.4574468085106
 r_46: + xp_18_4 + xp_18_2 + xp_0_8 + xp_0_5 <= 27.1297393364929
 r_47: + xp_22_5 + xp_16_1 + xp_13_1 <= 30
 r_48: + xp_13_0 <= 29.4574468085106
 r_49: + xp_17_5 <= 30
 r_50: + xp_0_7 <= 27.1297393364929
 r_51: + xp_8_1 + xp_1_1 <= 30
 r_52: + xp_8_0 + xp_1_2 <= 29.4574468085106
 r_53: + xp_1_0 <= 30
 r_54: + xp_0_3 <= 27.1297393364929
 r_55: + xp_11_5 <= 29.2225609756098
 r_56: + xp_19_6 <= 28.8106343283582
 r_57: + xp_22_1 <= 27.1297393364929
 r_58: + xp_22_4 + xp_17_6 + xp_5_0 <= 27.1297393364929
 r_59: + xp_23_5 + xp_22_0 + xp_17_1 <= 27.1297393364929
 r_60: + xp_23_1 + xp_17_2 + xp_6_0 <= 27.1297393364929
 r_61: + xp_23_0 + xp_22_5 + xp_17_5 <= 27.1297393364929
 r_62: + xp_17_0 <= 27.1297393364929
 r_63: + xp_23_7 + xp_23_4 + xp_23_3 + xp_22_3 + xp_17_3 + xp_11_2
 + xp_6_2 + xp_5_2 <= 27.1297393364929
 r_64: + xp_23_6 + xp_23_2 + xp_22_2 + xp_17_4 + xp_6_1 + xp_5_1
 <= 27.1297393364929
 r_65: + xp_21_5 + xp_20_1 + xp_19_2 + xp_14_1 + xp_11_4 + xp_10_1
 + xp_4_1 + xp_2_3 + xp_0_4 <= 27.7826086956522
 r_66: + xp_21_4 + xp_20_2 + xp_7_0 <= 30
 r_67: + xp_20_3 + xp_19_1 + xp_10_0 <= 28.8106343283582
 r_68: + xp_20_0 <= 28.4612068965517

Bounds
 0 <= xp_0_0 <= 28.2589359286202
 0 <= xp_0_1 <= 4.55353911760625
 0 <= xp_0_2 <= 14.866077875595
 0 <= xp_0_3 <= 4.24745082159857
 0 <= xp_0_4 <= 6.19896758628696
 0 <= xp_0_5 <= 2.12372541079929
 0 <= xp_0_6 <= 0.650505588229465
 0 <= xp_0_7 <= 2.12372541079929
 0 <= xp_0_8 <= 0.650505588229465
 0 <= xp_1_0 <= 20.7015231358646
 0 <= xp_1_1 <= 12.8252414675792
 0 <= xp_1_2 <= 2.12372541079929
 0 <= xp_2_0 <= 24.521688899712
 0 <= xp_2_1 <= 1.74106407137983
 0 <= xp_2_2 <= 6.56886958343834
 0 <= xp_2_3 <= 0.580354690459942
 0 <= xp_2_4 <= 1.74106407137983
 0 <= xp_3_0 <= 23.182395448998
 0 <= xp_3_1 <= 1.94514134100517
 0 <= xp_3_2 <= 7.14923276879993
 0 <= xp_3_3 <= 0.389028268201035
 0 <= xp_4_0 <= 24.4897820491402
 0 <= xp_4_1 <= 2.04081517076168
 0 <= xp_5_0 <= 18.3673365368551
 0 <= xp_5_1 <= 4.08163034152336
 0 <= xp_5_2 <= 4.08163034152336
 0 <= xp_6_0 <= 20.2040701905406
 0 <= xp_6_1 <= 1.83673365368551
 0 <= xp_6_2 <= 1.83673365368551
 0 <= xp_7_0 <= 22.8826401021654
 0 <= xp_8_0 <= 15.816317573403
 0 <= xp_8_1 <= 4.74489527202091
 0 <= xp_9_0 <= 19.0688667518045
 0 <= xp_10_0 <= 17.6020308478195
 0 <= xp_10_1 <= 1.46683590398496
 0 <= xp_11_0 <= 27.6084303403907
 0 <= xp_11_1 <= 13.7818565890705
 0 <= xp_11_2 <= 7.16198361616637
 0 <= xp_11_3 <= 7.55738730805062
 0 <= xp_11_4 <= 2.12372541079929
 0 <= xp_11_5 <= 2.12372541079929
 0 <= xp_12_0 <= 17.9081531234338
 0 <= xp_13_0 <= 13.3928495581235
 0 <= xp_13_1 <= 4.01785486743706
 0 <= xp_14_0 <= 14.0306042989866
 0 <= xp_14_1 <= 2.5510189634521
 0 <= xp_15_0 <= 15.1530526429055
 0 <= xp_15_1 <= 1.26275438690879
 0 <= xp_16_0 <= 14.540808091677
 0 <= xp_16_1 <= 1.21173400763975
 0 <= xp_17_0 <= 28.3290868263897
 0 <= xp_17_1 <= 6.39029825599669
 0 <= xp_17_2 <= 2.84438189679827
 0 <= xp_17_3 <= 4.26657284519741
 0 <= xp_17_4 <= 1.42219094839914
 0 <= xp_17_5 <= 1.42219094839914
 0 <= xp_17_6 <= 1.42219094839914
 0 <= xp_18_0 <= 21.211726928555
 0 <= xp_18_1 <= 2.53825962118402
 0 <= xp_18_2 <= 4.66198503198331
 0 <= xp_18_3 <= 13.1568866751804
 0 <= xp_18_4 <= 1.26912981059201
 0 <= xp_18_5 <= 1.26912981059201
 0 <= xp_19_0 <= 28.8392948665309
 0 <= xp_19_1 <= 3.69259357842069
 0 <= xp_19_2 <= 4.92345810456091
 0 <= xp_19_3 <= 1.23086452614023
 0 <= xp_19_4 <= 2.46172905228046
 0 <= xp_19_5 <= 1.23086452614023
 0 <= xp_19_6 <= 1.23086452614023
 0 <= xp_20_0 <= 27.8188830336993
 0 <= xp_20_1 <= 5.62499256696106
 0 <= xp_20_2 <= 3.50126715616178
 0 <= xp_20_3 <= 5.83544526026963
 0 <= xp_21_0 <= 27.5382709477195
 0 <= xp_21_1 <= 6.23085744705553
 0 <= xp_21_2 <= 3.08034902719218
 0 <= xp_21_3 <= 2.05356601812812
 0 <= xp_21_4 <= 1.02678300906406
 0 <= xp_21_5 <= 1.02678300906406
 0 <= xp_22_0 <= 18.4630061191608
 0 <= xp_22_1 <= 2.12372541079929
 0 <= xp_22_2 <= 2.69769618267437
 0 <= xp_22_3 <= 2.69769618267437
 0 <= xp_22_4 <= 7.27040829328931
 0 <= xp_22_5 <= 6.04591494338148
 0 <= xp_23_0 <= 20.5867315299601
 0 <= xp_23_1 <= 4.82142159347365
 0 <= xp_23_2 <= 4.82142159347365
 0 <= xp_23_3 <= 3.02295747169074
 0 <= xp_23_4 <= 0.899232060891455
 0 <= xp_23_5 <= 2.12372541079929
 0 <= xp_23_6 <= 2.12372541079929
 0 <= xp_23_7 <= 0.899232060891455

End
